c *********************************
c * Circuit generated by BenCGen
c *
c * RippleCarryAdderSubtractor_4_4_4_OutSunT
c *
c * Ports with 1 gate(s): 2
c * Ports with 2 gate(s): 26
c * Total gates: 28
c *********************************
p cnf 36 95
1 15 0
-1 -15 0
1 -14 0
15 -14 0
-1 -15 14 0
14 16 0
-14 -16 0
5 14 -17 0
-5 14 17 0
5 -14 17 0
-5 -14 -17 0
6 14 -18 0
-6 14 18 0
6 -14 18 0
-6 -14 -18 0
7 14 -19 0
-7 14 19 0
7 -14 19 0
-7 -14 -19 0
8 14 -20 0
-8 14 20 0
8 -14 20 0
-8 -14 -20 0
1 17 -22 0
-1 17 22 0
1 -17 22 0
-1 -17 -22 0
22 14 -9 0
-22 14 9 0
22 -14 9 0
-22 -14 -9 0
14 -23 0
22 -23 0
-14 -22 23 0
17 -24 0
1 -24 0
-17 -1 24 0
-23 21 0
-24 21 0
23 24 -21 0
2 18 -26 0
-2 18 26 0
2 -18 26 0
-2 -18 -26 0
26 21 -10 0
-26 21 10 0
26 -21 10 0
-26 -21 -10 0
21 -27 0
26 -27 0
-21 -26 27 0
18 -28 0
2 -28 0
-18 -2 28 0
-27 25 0
-28 25 0
27 28 -25 0
3 19 -30 0
-3 19 30 0
3 -19 30 0
-3 -19 -30 0
30 25 -11 0
-30 25 11 0
30 -25 11 0
-30 -25 -11 0
25 -31 0
30 -31 0
-25 -30 31 0
19 -32 0
3 -32 0
-19 -3 32 0
-31 29 0
-32 29 0
31 32 -29 0
4 20 -34 0
-4 20 34 0
4 -20 34 0
-4 -20 -34 0
34 29 -12 0
-34 29 12 0
34 -29 12 0
-34 -29 -12 0
29 -35 0
34 -35 0
-29 -34 35 0
20 -36 0
4 -36 0
-20 -4 36 0
-35 33 0
-36 33 0
35 36 -33 0
33 14 -13 0
-33 14 13 0
33 -14 13 0
-33 -14 -13 0
